67
1 1425 1120
2 388 793
3 1152 1113
4 790 118
5 1412 1062
6 578 570
7 1462 941
8 1034 96
9 921 44
10 600 924
11 225 641
12 790 64
13 327 605
14 1496 119
15 560 600
16 940 813
17 1251 85
18 569 540
19 1119 1043
20 607 49
21 778 506
22 1209 1366
23 538 1497
24 949 1426
25 1058 280
26 1320 533
27 557 1350
28 249 1470
29 1213 389
30 139 1014
31 1467 1049
32 257 1268
33 253 18
34 982 325
35 959 1389
36 458 312
37 50 1352
38 863 1302
39 194 1477
40 955 690
41 647 708
42 161 801
43 803 799
44 98 1048
45 117 255
46 1362 826
47 221 1329
48 234 199
49 135 1339
50 489 797
51 921 135
52 1422 1126
53 64 624
54 964 835
55 789 1187
56 141 743
57 812 1075
58 534 611
59 626 226
60 196 713
61 180 1403
62 59 897
63 982 1420
64 819 312
65 513 123
66 819 915
67 315 735
